Running MiniSat on FULL_RUN_MINISAT\5952b9f18b73dabb531c60e3ac85d26f-ctl_4291_567_9_unsat.cnf... 
============================[ Problem Statistics ]=============================
|                                                                             |
|  Number of variables:         17850                                         |
|  Number of clauses:          154655                                         |
|  Parse time:                   0.34 s                                       |
|                                                                             |
============================[ Search Statistics ]==============================
| Conflicts |          ORIGINAL         |          LEARNT          | Progress |
|           |    Vars  Clauses Literals |    Limit  Clauses Lit/Cl |          |
===============================================================================
|       100 |   17850   154655   516086 |    56706      100     16 |  0.000 % |
|       250 |   17850   154655   516086 |    62377      250     18 |  0.000 % |
|       475 |   17850   154655   516086 |    68615      475     15 |  0.000 % |
|       812 |   17850   154655   516086 |    75476      812     14 |  0.000 % |
|      1318 |   17850   154655   516086 |    83024     1318     15 |  0.000 % |
|      2077 |   17850   154655   516086 |    91326     2077     15 |  0.000 % |
|      3216 |   17850   154655   516086 |   100459     3216     14 |  0.000 % |
|      4924 |   17850   154655   516086 |   110505     4924     14 |  0.000 % |
|      7486 |   17850   154655   516086 |   121556     7486     14 |  0.000 % |
|     11330 |   17850   154655   516086 |   133711    11330     15 |  0.000 % |
|     17096 |   17850   154655   516086 |   147082    17096     15 |  0.000 % |
|     25745 |   17850   154655   516086 |   161791    25745     15 |  0.000 % |
|     38719 |   17850   154655   516086 |   177970    38719     15 |  0.000 % |
|     58180 |   17850   154655   516086 |   195767    58180     15 |  0.000 % |
ERROR: MiniSat process not found for FULL_RUN_MINISAT\5a068ba62fe30e435a76e2ec80896ef4-ITC2021_Middle_1.xml.cnf 
Finished MiniSat on FULL_RUN_MINISAT\5a068ba62fe30e435a76e2ec80896ef4-ITC2021_Middle_1.xml.cnf